110619
6,10,13,23,25,32,37,38,48,53,60,121,134,137,146,147,151,215,216,236,245,249,254,269,273,281,334,347,362,373,379,382,419,421,426,446,463,469,473,476,480,493,494,539,573,585,599,603,610,612,657,669,703,708,718,732,736,737,743,751,770,775,786,822,824,830,845,849,855,886,887,914,937,945,967,984,986,987,989,992,1003,1031,1034,1043,1048,1057,1096,1099,1114,1117,1137,1138,1143,1153,1158,1168,1239,1246,1248,1260,1272,1298,1322,1333,1343,1344,1353,1361,1394,1400,1403,1419,1431,1441,1457,1463,1466,1472,1473,1475,1483,1485,1507,1532,1544,1545,1548,1549,1567,1591,1604,1615,1617,1630,1638,1654,1664,1666,1667,1672,1690,1692,1696,1716,1724,1729,1731,1825,1861,1864,1873,1882,1890,1900,1904,1915,1919,1953,1954,1989,1997